*SENSE:Minimize
NAME          MODEL
ROWS
 N  OBJ
 G  C0000000
 G  C0000001
 G  C0000002
 G  C0000003
 G  C0000004
 G  C0000005
 G  C0000006
 G  C0000007
 G  C0000008
 G  C0000009
 G  C0000010
 G  C0000011
 G  C0000012
 G  C0000013
 G  C0000014
 G  C0000015
 G  C0000016
 G  C0000017
 G  C0000018
 G  C0000019
 G  C0000020
 G  C0000021
 G  C0000022
 G  C0000023
 G  C0000024
 G  C0000025
 G  C0000026
 G  C0000027
 G  C0000028
 G  C0000029
 G  C0000030
 G  C0000031
 G  C0000032
 G  C0000033
 G  C0000034
 G  C0000035
 G  C0000036
 G  C0000037
 G  C0000038
 G  C0000039
 G  C0000040
 G  C0000041
 G  C0000042
 G  C0000043
 G  C0000044
 G  C0000045
 G  C0000046
 G  C0000047
 G  C0000048
 G  C0000049
 G  C0000050
 G  C0000051
 G  C0000052
 G  C0000053
 G  C0000054
 G  C0000055
COLUMNS
    X0000002  C0000000   1.000000000000e+00
    X0000002  C0000001   1.000000000000e+00
    X0000002  C0000002   1.000000000000e+00
    X0000002  C0000017   1.000000000000e+00
    X0000002  C0000018   1.000000000000e+00
    X0000002  C0000019   1.000000000000e+00
    X0000002  C0000020   1.000000000000e+00
    X0000002  C0000021   1.000000000000e+00
    X0000002  C0000022   1.000000000000e+00
    X0000002  C0000030   1.000000000000e+00
    X0000002  C0000031   1.000000000000e+00
    X0000002  C0000032   1.000000000000e+00
    X0000002  C0000000   1.000000000000e+00
    X0000002  C0000001   1.000000000000e+00
    X0000002  C0000002   1.000000000000e+00
    X0000002  C0000017   1.000000000000e+00
    X0000002  C0000018   1.000000000000e+00
    X0000002  C0000019   1.000000000000e+00
    X0000002  C0000020   1.000000000000e+00
    X0000002  C0000021   1.000000000000e+00
    X0000002  C0000022   1.000000000000e+00
    X0000002  C0000030   1.000000000000e+00
    X0000002  C0000031   1.000000000000e+00
    X0000002  C0000032   1.000000000000e+00
    X0000002  C0000000   1.000000000000e+00
    X0000002  C0000001   1.000000000000e+00
    X0000002  C0000002   1.000000000000e+00
    X0000002  C0000017   1.000000000000e+00
    X0000002  C0000018   1.000000000000e+00
    X0000002  C0000019   1.000000000000e+00
    X0000002  C0000020   1.000000000000e+00
    X0000002  C0000021   1.000000000000e+00
    X0000002  C0000022   1.000000000000e+00
    X0000002  C0000030   1.000000000000e+00
    X0000002  C0000031   1.000000000000e+00
    X0000002  C0000032   1.000000000000e+00
    X0000003  OBJ        1.000000000000e+00
    MARK      'MARKER'                 'INTORG'
    X0000004  C0000003  -1.000000000000e+00
    X0000004  C0000010  -1.000000000000e+00
    X0000004  C0000023  -1.000000000000e+00
    X0000004  C0000033  -1.000000000000e+00
    X0000004  C0000040   1.000000000000e+00
    X0000004  C0000041   1.000000000000e+00
    X0000004  C0000048  -1.000000000000e+00
    X0000004  C0000049  -1.000000000000e+00
    MARK      'MARKER'                 'INTEND'
    MARK      'MARKER'                 'INTORG'
    X0000005  C0000005   1.000000000000e+00
    X0000005  C0000006  -1.000000000000e+00
    X0000005  C0000012   1.000000000000e+00
    X0000005  C0000013  -1.000000000000e+00
    X0000005  C0000025   1.000000000000e+00
    X0000005  C0000026  -1.000000000000e+00
    X0000005  C0000035   1.000000000000e+00
    X0000005  C0000036  -1.000000000000e+00
    X0000005  C0000040  -1.000000000000e+00
    X0000005  C0000042   1.000000000000e+00
    X0000005  C0000048   1.000000000000e+00
    X0000005  C0000050  -1.000000000000e+00
    MARK      'MARKER'                 'INTEND'
    MARK      'MARKER'                 'INTORG'
    X0000006  C0000008  -1.000000000000e+00
    X0000006  C0000015  -1.000000000000e+00
    X0000006  C0000028  -1.000000000000e+00
    X0000006  C0000038  -1.000000000000e+00
    X0000006  C0000041  -1.000000000000e+00
    X0000006  C0000042  -1.000000000000e+00
    X0000006  C0000049   1.000000000000e+00
    X0000006  C0000050   1.000000000000e+00
    MARK      'MARKER'                 'INTEND'
    MARK      'MARKER'                 'INTORG'
    X0000007  C0000003   1.000000000000e+00
    X0000007  C0000004  -1.000000000000e+00
    X0000007  C0000010   1.000000000000e+00
    X0000007  C0000011  -1.000000000000e+00
    X0000007  C0000023   1.000000000000e+00
    X0000007  C0000024  -1.000000000000e+00
    X0000007  C0000033   1.000000000000e+00
    X0000007  C0000034  -1.000000000000e+00
    X0000007  C0000043   1.000000000000e+00
    X0000007  C0000044   1.000000000000e+00
    X0000007  C0000051  -1.000000000000e+00
    X0000007  C0000052  -1.000000000000e+00
    MARK      'MARKER'                 'INTEND'
    MARK      'MARKER'                 'INTORG'
    X0000008  C0000005  -1.000000000000e+00
    X0000008  C0000012  -1.000000000000e+00
    X0000008  C0000025  -1.000000000000e+00
    X0000008  C0000035  -1.000000000000e+00
    X0000008  C0000043  -1.000000000000e+00
    X0000008  C0000045   1.000000000000e+00
    X0000008  C0000051   1.000000000000e+00
    X0000008  C0000053  -1.000000000000e+00
    MARK      'MARKER'                 'INTEND'
    MARK      'MARKER'                 'INTORG'
    X0000009  C0000008   1.000000000000e+00
    X0000009  C0000009  -1.000000000000e+00
    X0000009  C0000015   1.000000000000e+00
    X0000009  C0000016  -1.000000000000e+00
    X0000009  C0000028   1.000000000000e+00
    X0000009  C0000029  -1.000000000000e+00
    X0000009  C0000038   1.000000000000e+00
    X0000009  C0000039  -1.000000000000e+00
    X0000009  C0000044  -1.000000000000e+00
    X0000009  C0000045  -1.000000000000e+00
    X0000009  C0000052   1.000000000000e+00
    X0000009  C0000053   1.000000000000e+00
    MARK      'MARKER'                 'INTEND'
    MARK      'MARKER'                 'INTORG'
    X0000010  C0000001  -1.000000000000e+00
    X0000010  C0000004   1.000000000000e+00
    X0000010  C0000011   1.000000000000e+00
    X0000010  C0000018  -1.000000000000e+00
    X0000010  C0000021  -1.000000000000e+00
    X0000010  C0000024   1.000000000000e+00
    X0000010  C0000031  -1.000000000000e+00
    X0000010  C0000034   1.000000000000e+00
    X0000010  C0000046   1.000000000000e+00
    X0000010  C0000054  -1.000000000000e+00
    MARK      'MARKER'                 'INTEND'
    MARK      'MARKER'                 'INTORG'
    X0000011  C0000002  -1.000000000000e+00
    X0000011  C0000007   1.000000000000e+00
    X0000011  C0000014   1.000000000000e+00
    X0000011  C0000019  -1.000000000000e+00
    X0000011  C0000022  -1.000000000000e+00
    X0000011  C0000027   1.000000000000e+00
    X0000011  C0000032  -1.000000000000e+00
    X0000011  C0000037   1.000000000000e+00
    X0000011  C0000046  -1.000000000000e+00
    X0000011  C0000054   1.000000000000e+00
    MARK      'MARKER'                 'INTEND'
    MARK      'MARKER'                 'INTORG'
    X0000012  C0000006   1.000000000000e+00
    X0000012  C0000007  -1.000000000000e+00
    X0000012  C0000013   1.000000000000e+00
    X0000012  C0000014  -1.000000000000e+00
    X0000012  C0000026   1.000000000000e+00
    X0000012  C0000027  -1.000000000000e+00
    X0000012  C0000036   1.000000000000e+00
    X0000012  C0000037  -1.000000000000e+00
    X0000012  C0000047   1.000000000000e+00
    X0000012  C0000055  -1.000000000000e+00
    MARK      'MARKER'                 'INTEND'
    MARK      'MARKER'                 'INTORG'
    X0000013  C0000000  -1.000000000000e+00
    X0000013  C0000009   1.000000000000e+00
    X0000013  C0000016   1.000000000000e+00
    X0000013  C0000017  -1.000000000000e+00
    X0000013  C0000020  -1.000000000000e+00
    X0000013  C0000029   1.000000000000e+00
    X0000013  C0000030  -1.000000000000e+00
    X0000013  C0000039   1.000000000000e+00
    X0000013  C0000047  -1.000000000000e+00
    X0000013  C0000055   1.000000000000e+00
    MARK      'MARKER'                 'INTEND'
    MARK      'MARKER'                 'INTORG'
    X0000014  C0000040  -1.000000000000e+03
    X0000014  C0000048   1.000000000000e+03
    MARK      'MARKER'                 'INTEND'
    MARK      'MARKER'                 'INTORG'
    X0000015  C0000041  -1.000000000000e+03
    X0000015  C0000049   1.000000000000e+03
    MARK      'MARKER'                 'INTEND'
    MARK      'MARKER'                 'INTORG'
    X0000016  C0000042  -1.000000000000e+03
    X0000016  C0000050   1.000000000000e+03
    MARK      'MARKER'                 'INTEND'
    MARK      'MARKER'                 'INTORG'
    X0000017  C0000043  -1.000000000000e+03
    X0000017  C0000051   1.000000000000e+03
    MARK      'MARKER'                 'INTEND'
    MARK      'MARKER'                 'INTORG'
    X0000018  C0000044  -1.000000000000e+03
    X0000018  C0000052   1.000000000000e+03
    MARK      'MARKER'                 'INTEND'
    MARK      'MARKER'                 'INTORG'
    X0000019  C0000045  -1.000000000000e+03
    X0000019  C0000053   1.000000000000e+03
    MARK      'MARKER'                 'INTEND'
    MARK      'MARKER'                 'INTORG'
    X0000020  C0000046  -1.000000000000e+03
    X0000020  C0000054   1.000000000000e+03
    MARK      'MARKER'                 'INTEND'
    MARK      'MARKER'                 'INTORG'
    X0000021  C0000047  -1.000000000000e+03
    X0000021  C0000055   1.000000000000e+03
    MARK      'MARKER'                 'INTEND'
RHS
    RHS       C0000000   3.000000000000e+00
    RHS       C0000001   4.000000000000e+00
    RHS       C0000002   6.000000000000e+00
    RHS       C0000003   1.000000000000e+01
    RHS       C0000004   8.000000000000e+00
    RHS       C0000005   8.000000000000e+00
    RHS       C0000006   3.000000000000e+00
    RHS       C0000007   5.000000000000e+00
    RHS       C0000008   4.000000000000e+00
    RHS       C0000009   7.000000000000e+00
    RHS       C0000010   1.000000000000e+01
    RHS       C0000011   8.000000000000e+00
    RHS       C0000012   8.000000000000e+00
    RHS       C0000013   3.000000000000e+00
    RHS       C0000014   5.000000000000e+00
    RHS       C0000015   4.000000000000e+00
    RHS       C0000016   7.000000000000e+00
    RHS       C0000017   3.000000000000e+00
    RHS       C0000018   4.000000000000e+00
    RHS       C0000019   6.000000000000e+00
    RHS       C0000020   3.000000000000e+00
    RHS       C0000021   4.000000000000e+00
    RHS       C0000022   6.000000000000e+00
    RHS       C0000023   1.000000000000e+01
    RHS       C0000024   8.000000000000e+00
    RHS       C0000025   8.000000000000e+00
    RHS       C0000026   3.000000000000e+00
    RHS       C0000027   5.000000000000e+00
    RHS       C0000028   4.000000000000e+00
    RHS       C0000029   7.000000000000e+00
    RHS       C0000030   3.000000000000e+00
    RHS       C0000031   4.000000000000e+00
    RHS       C0000032   6.000000000000e+00
    RHS       C0000033   1.000000000000e+01
    RHS       C0000034   8.000000000000e+00
    RHS       C0000035   8.000000000000e+00
    RHS       C0000036   3.000000000000e+00
    RHS       C0000037   5.000000000000e+00
    RHS       C0000038   4.000000000000e+00
    RHS       C0000039   7.000000000000e+00
    RHS       C0000040  -9.970000000000e+02
    RHS       C0000041  -9.960000000000e+02
    RHS       C0000042  -9.960000000000e+02
    RHS       C0000043  -9.920000000000e+02
    RHS       C0000044  -9.930000000000e+02
    RHS       C0000045  -9.930000000000e+02
    RHS       C0000046  -9.940000000000e+02
    RHS       C0000047  -9.970000000000e+02
    RHS       C0000048   1.000000000000e+01
    RHS       C0000049   1.000000000000e+01
    RHS       C0000050   3.000000000000e+00
    RHS       C0000051   8.000000000000e+00
    RHS       C0000052   8.000000000000e+00
    RHS       C0000053   8.000000000000e+00
    RHS       C0000054   4.000000000000e+00
    RHS       C0000055   5.000000000000e+00
BOUNDS
 FX BND       X0000003   0.000000000000e+00
 LO BND       X0000004   0.000000000000e+00
 LO BND       X0000005   0.000000000000e+00
 LO BND       X0000006   0.000000000000e+00
 LO BND       X0000007   0.000000000000e+00
 LO BND       X0000008   0.000000000000e+00
 LO BND       X0000009   0.000000000000e+00
 LO BND       X0000010   0.000000000000e+00
 LO BND       X0000011   0.000000000000e+00
 LO BND       X0000012   0.000000000000e+00
 LO BND       X0000013   0.000000000000e+00
 BV BND       X0000014
 BV BND       X0000015
 BV BND       X0000016
 BV BND       X0000017
 BV BND       X0000018
 BV BND       X0000019
 BV BND       X0000020
 BV BND       X0000021
ENDATA
